% seed = 0

mint = 37;
% maxt = 264;

nActs = 92;
dur = [0,2,2,2,1,2,1,5,2,1,1,5,2,2,3,3,5,2,2,1,6,2,2,1,6,2,3,1,3,1,4,4,3,3,3,2,4,4,2,5,3,3,3,3,2,1,3,6,5,6,3,4,3,5,3,2,3,3,2,5,1,4,5,4,5,2,3,2,4,2,4,1,3,2,4,1,3,2,5,1,5,3,2,3,3,5,2,1,4,1,4,0];

nSkills = 9;
sreq = [| 0,0,0,0,0,0,0,0,0,
	| 1,0,0,0,1,1,0,1,0,
	| 0,0,0,0,1,1,0,1,0,
	| 0,1,0,0,0,0,0,1,0,
	| 0,1,0,0,0,0,0,0,0,
	| 0,0,0,0,0,1,0,2,0,
	| 0,1,0,0,1,0,1,1,0,
	| 0,0,0,0,0,1,0,0,1,
	| 0,0,0,0,0,3,0,0,0,
	| 0,0,0,0,0,0,0,0,1,
	| 0,0,0,0,0,2,1,0,1,
	| 0,0,1,0,1,0,1,0,1,
	| 0,1,0,0,0,1,0,2,0,
	| 0,1,0,0,0,1,0,0,0,
	| 0,0,0,0,0,0,0,2,0,
	| 0,0,0,1,1,0,0,1,0,
	| 0,0,0,0,1,1,0,1,0,
	| 0,0,0,0,1,0,0,0,0,
	| 0,0,0,1,1,0,0,1,0,
	| 0,0,0,0,1,1,2,0,0,
	| 0,1,0,1,0,1,0,0,0,
	| 0,0,1,0,0,0,0,0,0,
	| 0,0,1,1,1,0,0,1,0,
	| 0,0,0,0,0,2,0,1,0,
	| 0,0,1,1,0,2,0,0,0,
	| 0,1,0,0,0,2,1,0,0,
	| 0,1,0,0,0,0,0,0,1,
	| 0,0,0,1,0,0,0,0,0,
	| 0,0,0,0,1,0,2,1,0,
	| 0,0,1,0,1,0,1,0,1,
	| 0,1,0,0,1,0,1,0,0,
	| 0,0,1,0,0,0,0,1,0,
	| 0,0,0,0,0,1,0,0,0,
	| 0,0,1,1,0,0,0,2,0,
	| 0,0,0,0,0,1,0,1,0,
	| 0,0,0,0,1,1,1,1,0,
	| 0,0,0,0,1,0,0,1,0,
	| 0,0,0,0,0,0,1,0,0,
	| 0,0,0,0,1,0,0,0,0,
	| 0,1,0,1,0,0,0,0,0,
	| 0,0,0,0,1,0,0,0,0,
	| 0,1,0,0,0,1,0,0,0,
	| 0,0,0,1,0,2,1,0,0,
	| 0,0,0,0,0,2,1,1,0,
	| 0,0,0,0,1,1,0,0,1,
	| 0,1,0,0,1,1,0,0,1,
	| 0,0,1,0,1,0,0,1,1,
	| 0,0,0,0,0,0,0,1,0,
	| 0,1,0,0,1,1,1,0,0,
	| 0,1,0,0,1,0,1,1,0,
	| 0,0,0,0,0,0,2,0,0,
	| 0,0,0,0,0,0,0,1,1,
	| 0,0,0,0,1,0,0,0,0,
	| 0,0,1,1,0,0,1,1,0,
	| 0,1,0,0,0,0,0,1,0,
	| 0,1,0,1,1,0,0,0,1,
	| 0,0,1,0,0,2,0,1,0,
	| 0,1,0,1,0,0,0,1,0,
	| 0,0,1,0,0,0,0,0,0,
	| 0,0,0,0,0,0,1,0,0,
	| 1,0,0,0,0,0,1,1,0,
	| 0,1,0,0,0,1,0,1,0,
	| 0,0,0,0,1,2,0,1,0,
	| 0,0,0,0,1,1,0,0,0,
	| 0,0,0,0,1,1,0,0,1,
	| 0,0,0,0,1,0,0,0,0,
	| 0,0,0,0,1,0,0,0,0,
	| 0,0,0,0,0,3,0,1,0,
	| 0,0,0,0,0,0,1,1,0,
	| 0,0,0,1,1,1,1,0,0,
	| 0,0,1,0,0,1,1,0,1,
	| 0,0,0,2,1,0,0,1,0,
	| 0,0,1,0,0,0,0,2,0,
	| 0,0,2,0,0,0,0,0,0,
	| 0,0,0,0,1,0,0,0,0,
	| 0,0,0,0,1,0,0,1,0,
	| 0,0,1,0,0,0,0,0,0,
	| 0,0,1,0,0,0,0,1,0,
	| 0,0,0,0,0,0,0,0,1,
	| 0,1,0,0,0,0,1,0,0,
	| 0,0,0,0,0,1,1,0,0,
	| 0,0,0,0,0,0,0,1,0,
	| 0,0,0,1,0,1,0,2,0,
	| 0,0,0,0,1,0,0,0,0,
	| 0,1,1,0,0,1,0,0,0,
	| 0,0,0,1,0,1,0,2,0,
	| 0,0,1,1,0,1,0,0,0,
	| 0,0,0,0,0,0,1,0,0,
	| 0,0,0,0,2,0,0,1,0,
	| 0,0,2,0,0,2,0,0,0,
	| 0,1,0,0,1,1,0,1,0,
	| 0,0,0,0,0,0,0,0,0, |];

% SumOfsreq = 239;

nResources = 14;
mastery = [| false,false,false,false,true,true,false,false,false,
	| false,false,false,true,true,true,false,false,false,
	| false,false,false,false,false,false,true,true,true,
	| false,false,false,false,false,true,false,false,false,
	| false,false,false,false,false,false,true,true,true,
	| false,false,false,false,false,false,false,false,true,
	| false,true,true,false,false,false,false,false,false,
	| false,false,false,false,false,false,false,true,true,
	| false,false,false,false,true,true,false,false,false,
	| false,true,true,false,false,false,false,false,false,
	| false,false,false,true,true,true,false,false,false,
	| false,false,false,true,true,true,true,true,true,
	| true,true,true,false,false,false,true,true,true,
	| false,false,false,false,false,false,true,true,true, |];

nPrecs = 166;
pred = [1,1,1,2,2,2,3,3,3,4,4,4,5,5,6,6,7,7,7,8,8,9,9,9,10,10,11,11,11,12,12,12,13,13,13,14,15,15,15,16,16,16,17,17,17,18,18,18,19,20,20,21,21,21,22,23,23,23,24,25,25,26,26,26,27,27,28,29,29,30,30,31,31,32,33,33,34,34,34,35,36,37,38,39,39,40,40,41,42,42,43,44,44,45,45,46,47,47,48,48,48,49,49,50,50,51,51,52,52,52,53,53,54,55,56,56,57,58,58,59,59,60,60,60,61,61,61,62,63,64,64,65,66,66,66,67,67,68,69,70,71,72,72,73,74,75,75,76,76,77,78,79,80,80,81,82,83,84,85,86,86,87,88,89,90,91];
succ = [2,3,4,5,7,16,9,28,22,44,20,6,76,53,11,62,12,15,8,58,24,10,19,13,50,45,25,27,23,18,14,32,17,26,64,46,21,38,46,27,36,35,41,18,52,33,37,31,91,43,30,71,70,63,48,49,34,52,63,36,28,73,43,39,29,55,86,89,47,54,56,76,54,57,42,50,75,60,40,39,85,65,69,49,46,42,84,45,51,83,60,65,73,67,61,71,78,56,50,67,68,60,78,81,82,91,56,65,66,70,69,79,72,59,82,77,61,62,80,70,88,67,77,71,68,78,80,68,66,74,72,74,76,87,79,74,72,79,73,91,85,83,80,75,87,81,87,84,77,90,82,83,81,84,85,88,86,86,89,89,90,88,90,92,92,92];

nUnrels = 2734;
unpred = [2,2,2,2,2,2,2,2,2,2,2,2,2,2,2,2,2,2,2,2,2,2,2,2,2,3,3,3,3,3,3,3,3,3,3,3,3,3,3,3,3,3,3,3,3,3,3,3,3,3,3,3,3,3,3,3,3,3,3,4,4,4,4,4,4,4,4,4,4,4,4,4,4,4,4,4,4,4,4,4,4,4,4,4,4,4,4,4,4,4,4,4,4,4,4,5,5,5,5,5,5,5,5,5,5,5,5,5,5,5,5,5,5,5,5,5,5,5,5,5,5,5,5,5,5,5,5,5,5,5,5,5,5,5,5,5,5,5,5,5,5,5,5,5,5,5,5,5,5,5,5,5,5,5,5,5,5,5,5,5,5,5,5,5,5,6,6,6,6,6,6,6,6,6,6,6,6,6,6,6,6,6,6,6,6,6,6,6,6,6,6,6,6,6,6,6,6,6,6,6,6,6,6,6,6,6,7,7,7,7,7,7,7,7,7,7,7,7,7,7,7,7,7,7,7,7,7,7,7,7,7,7,7,7,7,7,7,7,7,7,7,8,8,8,8,8,8,8,8,8,8,8,8,8,8,8,8,8,8,8,8,8,8,8,8,8,8,8,8,8,8,8,8,8,8,8,8,8,8,8,8,8,8,8,8,8,8,8,8,8,8,8,8,8,8,8,8,8,8,8,8,8,8,8,8,9,9,9,9,9,9,9,9,9,9,9,9,9,9,9,9,9,9,9,9,9,9,9,9,9,9,9,9,9,9,9,9,10,10,10,10,10,10,10,10,10,10,10,10,10,10,10,10,10,10,10,10,10,10,10,10,10,10,10,10,10,10,10,10,10,10,10,10,10,10,10,10,10,10,10,10,10,10,10,10,10,10,10,10,10,10,10,10,10,10,10,10,10,11,11,11,11,11,11,11,11,11,11,11,11,11,11,11,11,11,11,11,11,11,11,11,11,11,11,11,11,11,11,11,11,11,11,11,11,11,11,11,12,12,12,12,12,12,12,12,12,12,12,12,12,12,12,12,12,12,12,12,12,12,12,12,12,12,12,12,12,12,12,12,12,12,12,12,12,12,12,12,12,12,12,12,13,13,13,13,13,13,13,13,13,13,13,13,13,13,13,13,13,13,13,13,13,13,13,13,13,13,13,13,13,13,13,14,14,14,14,14,14,14,14,14,14,14,14,14,14,14,14,14,14,14,14,14,14,14,14,14,14,14,14,14,14,14,14,14,14,14,14,14,14,14,14,14,14,14,14,14,14,14,14,14,14,14,14,14,14,14,14,14,14,14,14,14,14,14,14,14,14,14,14,14,14,14,14,14,15,15,15,15,15,15,15,15,15,15,15,15,15,15,15,15,15,15,15,15,15,15,15,15,15,15,15,15,15,15,15,15,15,15,15,15,15,15,15,15,15,15,15,15,15,15,15,15,15,15,15,15,15,16,16,16,16,16,16,16,16,16,16,16,16,16,16,16,16,16,16,16,16,16,16,16,16,16,16,16,16,16,16,16,16,16,16,16,16,16,16,16,16,16,16,16,16,17,17,17,17,17,17,17,17,17,17,17,17,17,17,17,17,17,17,17,17,17,17,17,17,17,17,17,17,17,17,17,17,17,17,17,17,17,17,18,18,18,18,18,18,18,18,18,18,18,18,18,18,18,18,18,18,18,18,18,18,18,18,18,18,18,18,18,18,18,18,18,18,18,18,18,18,18,18,18,18,18,18,18,18,18,18,19,19,19,19,19,19,19,19,19,19,19,19,19,19,19,19,19,19,19,19,19,19,19,19,19,19,19,19,19,19,19,19,19,19,19,19,19,19,19,19,19,19,19,19,19,19,19,19,19,19,19,19,19,19,19,19,19,19,19,19,19,19,19,19,19,19,19,19,19,19,19,20,20,20,20,20,20,20,20,20,20,20,20,20,20,20,20,20,20,20,20,20,20,20,20,20,20,20,20,20,20,20,20,20,20,20,20,20,20,20,20,20,20,20,20,20,20,20,20,20,20,21,21,21,21,21,21,21,21,21,21,21,21,21,21,21,21,21,21,21,21,21,21,21,21,21,21,21,21,21,21,21,21,21,21,21,21,21,21,21,21,21,21,21,21,21,21,21,21,21,21,21,21,21,21,22,22,22,22,22,22,22,22,22,22,22,22,22,22,22,22,22,22,22,22,22,22,22,22,22,22,22,22,22,22,22,22,22,22,22,22,22,22,22,22,22,22,22,22,22,22,22,22,22,22,22,23,23,23,23,23,23,23,23,23,23,23,23,23,23,23,23,23,23,23,23,23,23,23,23,23,23,23,23,23,23,23,23,23,23,23,23,24,24,24,24,24,24,24,24,24,24,24,24,24,24,24,24,24,24,24,24,24,24,24,24,24,24,24,24,24,24,24,24,24,24,24,24,24,24,24,24,24,24,24,24,24,24,24,24,24,24,24,24,24,24,24,25,25,25,25,25,25,25,25,25,25,25,25,25,25,25,25,25,25,25,25,25,25,25,25,25,25,25,25,25,25,25,25,25,25,25,25,25,25,25,25,25,25,25,25,25,25,25,25,25,25,25,25,25,25,25,25,25,25,25,25,26,26,26,26,26,26,26,26,26,26,26,26,26,26,26,26,26,26,26,26,26,26,26,26,26,26,26,26,26,26,26,26,26,26,26,26,26,26,26,26,26,27,27,27,27,27,27,27,27,27,27,27,27,27,27,27,27,27,27,27,27,27,27,27,27,27,27,27,27,27,27,27,27,27,27,27,27,27,27,27,27,27,27,27,27,27,27,27,27,27,27,27,28,28,28,28,28,28,28,28,28,28,28,28,28,28,28,28,28,28,28,28,28,28,28,28,28,28,28,28,28,28,28,28,28,28,28,28,28,28,28,28,28,28,28,28,28,28,28,28,28,28,28,28,28,28,28,28,28,28,28,28,29,29,29,29,29,29,29,29,29,29,29,29,29,29,29,29,29,29,29,29,29,29,29,29,29,29,29,29,29,29,29,29,29,29,29,29,29,29,29,29,29,29,29,29,29,29,29,29,29,29,29,29,29,29,30,30,30,30,30,30,30,30,30,30,30,30,30,30,30,30,30,30,30,30,30,30,30,30,30,30,30,30,30,30,30,30,30,30,30,30,30,30,30,30,30,30,30,30,30,30,30,31,31,31,31,31,31,31,31,31,31,31,31,31,31,31,31,31,31,31,31,31,31,31,31,31,31,31,31,31,31,31,31,31,31,31,31,31,31,31,31,31,31,31,31,31,31,31,31,32,32,32,32,32,32,32,32,32,32,32,32,32,32,32,32,32,32,32,32,32,32,32,32,32,32,32,32,32,32,32,32,32,32,32,32,32,32,32,32,32,32,32,32,33,33,33,33,33,33,33,33,33,33,33,33,33,33,33,33,33,33,33,33,33,33,33,33,33,33,33,33,33,33,33,33,33,33,33,33,33,33,33,33,33,33,33,33,34,34,34,34,34,34,34,34,34,34,34,34,34,34,34,34,34,34,34,34,34,34,34,34,34,34,34,34,34,34,34,34,34,34,35,35,35,35,35,35,35,35,35,35,35,35,35,35,35,35,35,35,35,35,35,35,35,35,35,35,35,35,35,35,35,35,35,35,35,36,36,36,36,36,36,36,36,36,36,36,36,36,36,36,36,36,36,36,36,36,36,36,36,36,36,36,36,36,36,36,36,36,36,36,36,36,36,36,36,36,36,36,36,36,36,36,36,36,36,36,36,36,37,37,37,37,37,37,37,37,37,37,37,37,37,37,37,37,37,37,37,37,37,37,37,37,37,37,37,37,37,37,37,37,37,37,37,37,37,37,37,37,37,37,37,37,37,37,37,37,37,38,38,38,38,38,38,38,38,38,38,38,38,38,38,38,38,38,38,38,38,38,38,38,38,38,38,38,38,38,38,38,38,38,38,38,38,38,38,38,38,38,38,38,38,39,39,39,39,39,39,39,39,39,39,39,39,39,39,39,39,39,39,39,39,39,39,39,39,39,39,39,39,39,39,39,39,40,40,40,40,40,40,40,40,40,40,40,40,40,40,40,40,40,40,40,40,40,40,40,40,40,40,40,40,40,40,40,40,40,40,40,40,40,40,40,41,41,41,41,41,41,41,41,41,41,41,41,41,41,41,41,41,41,41,41,41,41,41,41,41,41,41,41,41,41,41,42,42,42,42,42,42,42,42,42,42,42,42,42,42,42,42,42,42,42,42,42,42,42,42,42,42,42,42,42,42,42,42,42,42,42,42,42,42,42,43,43,43,43,43,43,43,43,43,43,43,43,43,43,43,43,43,43,43,43,43,43,43,43,43,43,43,43,43,43,43,43,44,44,44,44,44,44,44,44,44,44,44,44,44,44,44,44,44,44,44,44,44,44,44,44,44,44,44,44,44,44,44,44,44,44,44,44,44,45,45,45,45,45,45,45,45,45,45,45,45,45,45,45,45,45,45,45,45,45,45,45,45,45,45,45,45,46,46,46,46,46,46,46,46,46,46,46,46,46,46,46,46,46,46,46,46,46,46,46,46,46,46,46,46,46,46,46,46,46,46,46,46,46,46,46,46,46,46,47,47,47,47,47,47,47,47,47,47,47,47,47,47,47,47,47,47,47,47,47,47,47,47,47,47,47,47,47,47,47,47,47,47,47,47,47,47,48,48,48,48,48,48,48,48,48,48,48,48,48,48,48,48,48,48,48,48,48,48,48,48,48,48,49,49,49,49,49,49,49,49,49,49,49,49,49,49,49,49,49,49,49,49,49,49,49,49,50,50,50,50,50,50,50,50,50,50,50,50,50,50,50,50,50,50,50,50,50,50,50,50,50,50,50,50,50,50,50,50,50,50,50,51,51,51,51,51,51,51,51,51,51,51,51,51,51,51,51,51,51,51,51,51,51,51,51,51,51,51,51,51,51,51,51,51,51,52,52,52,52,52,52,52,52,52,52,52,52,52,52,52,52,52,52,52,52,52,52,52,52,53,53,53,53,53,53,53,53,53,53,53,53,53,53,53,53,53,53,53,53,53,53,53,53,53,53,54,54,54,54,54,54,54,54,54,54,54,54,54,54,54,54,54,54,54,54,54,54,54,54,54,54,54,54,55,55,55,55,55,55,55,55,55,55,55,55,55,55,55,55,55,55,55,55,55,55,55,55,55,55,55,55,55,55,55,56,56,56,56,56,56,56,56,56,56,56,56,56,56,56,56,56,56,56,56,56,56,56,56,56,56,56,56,56,56,56,57,57,57,57,57,57,57,57,57,57,57,57,57,57,57,57,57,57,57,57,58,58,58,58,58,58,58,58,58,58,58,58,58,58,58,58,58,58,58,58,58,58,59,59,59,59,59,59,59,59,59,59,59,59,59,59,59,59,59,59,59,59,59,59,59,59,59,59,59,59,60,60,60,60,60,60,60,60,60,60,60,60,60,60,60,60,61,61,61,61,61,61,61,61,61,61,61,61,61,61,61,61,61,62,62,62,62,62,62,62,62,62,62,62,62,62,62,62,62,62,62,62,62,62,62,62,63,63,63,63,63,63,63,63,63,63,63,63,63,63,63,63,63,64,64,64,64,64,64,64,64,64,64,64,64,64,64,64,65,65,65,65,65,65,65,65,65,65,65,65,65,65,65,65,65,65,65,65,65,65,66,66,66,66,66,66,66,66,66,66,66,66,66,66,66,67,67,67,67,67,67,67,67,67,67,67,67,68,68,68,68,68,68,68,68,68,68,68,68,68,68,68,68,68,68,69,69,69,69,69,69,69,69,69,69,69,69,69,69,70,70,70,70,70,70,70,70,70,70,70,70,70,70,70,70,70,70,70,70,71,71,71,71,71,71,71,71,71,71,71,71,71,71,71,71,71,71,72,72,72,72,72,72,72,72,72,72,72,73,73,73,73,73,73,73,73,73,73,73,74,74,74,74,74,74,74,74,74,74,74,74,74,74,75,75,75,75,75,75,75,75,75,75,76,76,76,76,76,76,76,76,76,76,77,77,77,77,77,77,77,77,77,77,77,77,77,78,78,78,78,78,78,78,78,78,78,79,79,79,79,79,79,79,79,80,80,80,80,80,81,81,81,81,81,81,81,81,82,82,82,82,82,82,82,83,83,83,83,83,84,84,84,84,85,85,85,85,85,86,86,86,87,87,88,88,89,89,90];
unsucc = [3,4,6,9,10,11,13,17,19,20,22,23,25,26,28,30,34,40,41,43,44,45,48,52,64,4,5,6,7,8,11,12,14,15,16,20,21,23,24,25,27,29,30,32,34,35,36,38,40,44,47,53,55,57,58,59,62,63,69,5,7,8,9,10,12,13,14,15,16,17,18,19,21,22,24,26,31,32,33,35,37,38,39,41,45,46,48,50,53,57,58,61,63,64,69,6,7,8,9,10,11,12,13,14,15,16,17,18,19,20,21,22,23,24,25,26,27,28,29,30,31,32,33,34,35,36,37,38,39,40,41,42,43,44,45,46,47,48,49,50,51,52,54,55,56,57,58,59,60,61,62,63,64,65,66,67,68,70,71,72,74,78,80,82,91,7,8,9,10,12,13,14,15,16,17,18,19,20,21,22,24,26,30,31,32,33,35,37,38,39,41,43,44,45,46,48,50,53,54,57,58,61,63,64,69,73,9,10,11,13,16,17,19,20,22,23,25,26,27,28,29,30,34,35,36,39,40,41,43,44,45,47,48,49,52,53,55,59,60,64,67,9,10,11,12,13,14,15,16,17,18,19,20,21,22,23,25,26,27,28,29,30,31,32,33,34,35,36,37,38,39,40,41,42,43,44,45,46,47,48,49,50,51,52,53,54,55,56,57,59,60,61,64,65,67,69,70,71,72,73,74,75,78,82,91,11,12,14,15,16,20,21,22,23,24,25,27,28,29,30,32,34,35,36,38,40,44,47,48,53,55,57,58,59,62,63,69,11,12,13,14,15,16,17,18,19,20,21,22,23,24,25,26,27,28,29,30,31,32,33,34,35,36,37,38,39,40,41,42,43,44,46,47,48,49,51,52,53,54,55,56,57,58,59,60,62,63,64,65,66,69,70,71,73,75,76,77,91,12,13,14,15,16,17,18,19,20,21,22,24,26,30,31,32,33,35,37,38,39,41,43,44,45,46,48,50,53,54,57,58,61,62,63,64,68,69,73,13,15,16,17,19,20,21,22,23,24,25,26,27,28,29,30,34,35,36,38,39,40,41,43,44,45,47,48,49,52,53,55,58,59,60,62,63,64,66,67,69,70,73,75,14,15,16,19,20,21,22,23,24,25,27,28,29,30,32,34,35,36,38,40,44,47,48,53,55,57,58,59,62,63,69,15,16,17,18,19,20,21,22,23,24,25,26,27,28,29,30,31,32,33,34,35,36,37,38,39,40,41,42,43,44,45,47,48,49,50,51,52,53,54,55,56,57,58,59,60,61,62,63,64,65,66,67,68,69,70,72,73,74,75,76,77,78,79,80,81,82,83,84,86,87,88,90,91,16,17,18,19,20,22,23,24,25,26,27,28,29,30,31,32,33,34,35,36,37,39,40,41,42,43,44,45,47,48,49,50,51,52,53,54,55,56,57,58,59,60,61,62,64,65,67,68,72,74,78,80,82,17,18,19,20,21,22,23,24,25,26,28,30,31,32,33,34,37,38,40,41,42,43,44,45,48,50,51,52,53,54,57,58,61,62,63,64,65,66,68,69,73,75,76,79,19,20,21,22,23,24,25,26,27,28,29,30,32,34,35,36,38,39,40,43,44,46,47,48,49,53,55,57,58,59,60,62,63,64,69,71,73,75,19,20,21,22,23,24,25,26,27,28,29,30,32,34,35,36,38,39,40,41,43,44,45,46,47,48,49,52,53,55,57,58,59,60,61,62,63,64,66,67,68,69,70,71,73,75,78,79,20,21,22,23,24,25,26,27,28,29,30,31,32,33,34,35,36,37,38,39,40,41,42,43,44,45,46,47,48,49,50,51,52,53,54,55,56,57,58,59,60,61,62,63,64,65,66,67,68,69,70,71,72,73,74,75,76,77,78,79,80,81,82,83,84,85,86,87,88,89,90,21,22,23,24,25,26,27,28,29,31,32,33,34,35,36,37,38,39,40,41,42,44,45,46,47,48,49,50,51,52,53,55,57,58,59,61,62,63,64,65,66,68,69,70,73,75,76,78,79,91,22,23,24,25,26,27,28,29,30,31,32,33,34,35,36,37,38,39,40,41,42,43,44,45,46,47,48,49,50,51,52,53,54,55,56,57,58,59,60,61,62,64,65,67,68,69,72,73,74,75,78,80,81,82,23,24,25,26,27,28,29,30,31,32,33,34,35,36,37,38,39,40,41,42,43,44,45,46,47,49,51,52,53,54,55,56,57,58,59,60,61,62,63,64,65,66,69,70,71,73,75,76,77,78,91,24,25,26,27,28,29,30,31,32,33,35,36,37,38,39,41,43,44,45,46,47,48,50,53,54,55,57,58,59,61,62,63,64,68,69,73,25,26,27,28,29,30,31,32,33,34,35,36,37,38,39,40,41,42,43,44,45,46,47,48,49,50,51,52,53,54,55,56,57,58,59,60,61,62,64,65,67,68,69,70,71,72,73,74,75,78,80,81,82,85,91,26,27,29,30,31,32,33,34,35,37,38,39,40,41,42,43,44,45,46,47,48,49,50,51,52,53,54,55,56,57,58,59,60,61,62,63,64,65,66,67,68,69,70,71,72,73,74,75,76,77,78,79,80,81,82,83,84,87,88,91,27,28,29,30,31,32,33,34,35,36,37,38,40,41,42,44,45,47,48,50,51,52,53,54,55,56,57,58,59,61,62,63,64,65,66,68,69,70,76,79,91,28,30,31,32,33,34,35,36,37,38,39,40,41,42,43,44,45,46,48,49,50,51,52,53,54,57,58,60,61,62,63,64,65,66,67,68,69,71,72,73,74,75,76,79,80,81,83,84,85,86,87,29,30,31,32,33,34,35,36,37,38,39,40,41,42,43,44,45,46,47,48,49,50,51,52,53,54,55,56,57,58,59,60,61,62,63,64,65,66,67,68,69,70,71,72,73,74,75,76,77,78,79,80,81,82,83,84,85,87,88,91,30,31,32,33,34,35,36,37,38,39,40,41,42,43,44,45,46,48,49,50,51,52,53,54,55,57,58,59,60,61,62,63,64,65,66,67,68,69,70,71,72,73,74,75,76,79,80,81,83,84,85,86,87,91,31,32,33,34,35,36,37,38,39,40,41,42,43,44,45,46,47,48,49,50,51,52,53,55,57,58,59,60,61,62,63,64,65,66,67,68,69,70,71,73,74,75,76,78,79,87,91,32,33,34,35,36,37,38,39,40,41,42,43,44,45,46,47,48,49,50,51,52,53,55,56,57,58,59,60,61,62,63,64,65,66,67,68,69,70,71,73,74,75,78,79,82,87,88,91,33,34,35,36,37,38,39,40,41,42,43,44,45,46,47,48,49,50,51,52,53,54,55,56,58,59,60,62,63,64,65,66,67,69,70,71,72,73,74,75,76,77,87,91,34,35,36,37,38,39,40,41,43,44,45,46,47,48,49,52,53,54,55,57,58,59,60,61,62,63,64,65,66,67,68,69,70,71,72,73,74,75,76,78,79,80,84,87,35,36,37,38,39,41,43,44,45,46,47,48,49,50,52,53,54,55,57,58,59,61,62,63,64,65,66,68,69,70,73,76,78,79,36,37,38,40,41,42,43,44,45,47,48,50,51,52,53,54,55,56,57,58,59,61,62,63,64,65,66,68,69,70,73,75,76,79,91,37,38,39,40,41,42,43,44,45,46,47,48,49,50,51,52,53,54,55,56,57,58,59,60,61,62,63,64,65,66,67,68,69,70,71,72,73,74,75,76,77,78,79,80,81,82,83,84,86,87,88,90,91,38,39,40,41,42,43,44,45,46,47,48,49,50,51,52,53,54,55,56,57,58,59,60,61,62,63,64,66,67,68,69,70,71,72,73,75,76,77,78,79,80,81,82,83,84,85,86,89,91,39,40,41,42,43,44,45,46,47,48,49,50,51,52,53,54,55,56,57,58,59,60,61,62,63,64,65,66,67,68,70,71,72,74,76,77,78,79,80,82,83,84,86,91,40,41,42,43,44,45,47,48,50,51,52,53,54,55,56,57,58,59,61,62,63,64,65,66,68,69,70,73,75,76,79,91,41,43,44,45,46,47,48,49,50,52,53,54,55,57,58,59,60,61,62,63,64,65,66,67,68,69,70,71,72,73,74,75,76,78,79,80,81,85,87,42,43,44,46,47,48,49,50,51,52,53,54,55,56,57,58,59,60,62,63,64,65,66,69,70,71,73,75,76,77,91,43,44,45,46,47,48,49,50,52,53,54,55,57,58,59,60,61,62,63,64,65,66,67,68,69,70,71,72,73,74,75,76,78,79,80,81,84,85,87,44,45,46,47,48,49,50,51,52,53,54,55,56,57,58,59,61,62,63,64,65,66,68,69,70,73,75,76,78,79,82,91,45,46,47,48,49,50,51,52,53,54,55,56,57,58,59,60,61,62,63,64,66,67,68,69,70,71,72,76,77,78,79,80,82,83,84,86,91,46,47,48,49,50,51,52,53,54,55,56,57,58,59,60,62,63,64,65,66,69,70,71,73,75,76,77,91,47,48,49,50,51,52,53,54,55,56,57,58,59,60,61,62,63,64,65,66,67,68,69,70,72,73,74,75,76,77,78,79,80,81,82,83,84,86,87,88,90,91,48,49,50,51,52,53,54,55,57,58,59,60,61,62,63,64,65,66,67,68,69,70,71,72,73,74,75,76,79,80,81,83,84,85,86,87,89,91,49,51,52,53,54,55,56,57,58,59,60,61,62,63,64,65,66,69,70,71,73,75,76,77,78,91,50,51,52,53,54,55,56,57,58,59,61,62,63,64,65,66,68,69,70,73,75,76,79,91,51,52,53,54,55,56,57,58,59,60,61,62,63,64,65,66,67,68,69,70,71,72,73,74,75,76,77,78,79,80,83,84,86,87,91,52,53,54,55,57,58,59,60,61,62,63,64,65,66,67,68,69,70,71,72,73,74,75,76,78,79,80,81,83,84,85,86,87,89,53,54,55,56,57,58,59,60,61,62,63,64,67,68,69,71,72,73,75,78,80,81,82,85,54,55,56,57,58,59,60,61,62,63,64,65,66,67,68,70,71,72,74,76,77,78,80,82,84,91,55,56,57,58,59,60,61,62,63,64,65,66,67,68,69,70,71,73,74,75,76,77,78,79,82,87,88,91,56,57,58,60,61,62,63,64,65,66,67,68,69,71,72,73,74,75,76,77,78,79,80,81,82,83,84,85,86,87,89,57,58,59,60,61,62,63,64,65,66,67,68,69,70,71,72,73,74,75,76,78,79,80,81,83,84,85,86,87,89,91,58,59,60,62,63,64,65,66,67,69,70,71,72,73,74,75,76,77,87,91,59,60,61,63,64,65,66,67,69,70,71,72,73,74,75,76,77,78,82,87,88,91,60,61,62,63,64,65,66,67,68,69,71,72,73,74,75,76,77,78,79,80,81,82,83,84,85,86,87,89,61,62,63,64,65,66,68,69,70,73,75,76,78,79,82,91,62,63,64,65,66,67,69,70,71,72,73,74,75,76,77,87,91,63,64,65,66,67,69,70,71,72,73,74,75,76,77,78,80,81,82,84,85,87,88,91,64,65,67,68,69,70,71,72,73,74,75,78,80,81,82,85,91,65,66,67,68,69,70,71,73,75,76,77,78,79,82,91,66,67,68,69,70,71,72,73,75,76,77,78,79,80,81,82,83,84,85,86,89,91,67,68,69,70,71,72,73,74,75,78,80,81,82,85,91,68,69,70,71,73,75,76,77,78,79,82,91,69,70,71,72,73,74,75,76,77,78,80,81,82,84,85,87,88,91,70,71,72,74,76,77,78,79,80,82,83,84,86,91,71,72,73,74,75,76,77,78,79,80,81,82,83,84,85,86,87,88,89,90,72,73,74,75,76,77,78,79,80,81,82,83,84,86,87,88,90,91,73,74,75,76,77,78,79,82,87,88,91,74,76,77,78,79,80,82,83,84,86,91,75,76,77,78,79,80,81,82,83,84,85,86,89,91,76,77,78,79,80,82,83,84,86,91,78,79,80,81,82,83,85,87,88,91,78,79,80,81,82,83,84,85,86,87,88,89,91,79,80,81,83,84,85,86,87,89,91,80,81,82,84,85,87,88,91,82,83,87,88,91,82,83,84,86,87,88,90,91,83,84,85,86,87,89,91,84,85,87,88,91,85,87,88,91,86,87,88,90,91,87,88,91,89,91,89,91,90,91,91];

USEFUL_RES = [{},
	{1,2,3,4,5,8,9,11,12,13,14},
	{1,2,3,4,5,8,9,11,12,13,14},
	{3,5,7,8,10,12,13,14},
	{7,10,13},
	{1,2,3,4,5,8,9,11,12,13,14},
	{1,2,3,5,7,8,9,10,11,12,13,14},
	{1,2,3,4,5,6,8,9,11,12,13,14},
	{1,2,4,9,11,12},
	{3,5,6,8,12,13,14},
	{1,2,3,4,5,6,8,9,11,12,13,14},
	{1,2,3,5,6,7,8,9,10,11,12,13,14},
	{1,2,3,4,5,7,8,9,10,11,12,13,14},
	{1,2,4,7,9,10,11,12,13},
	{3,5,8,12,13,14},
	{1,2,3,5,8,9,11,12,13,14},
	{1,2,3,4,5,8,9,11,12,13,14},
	{1,2,9,11,12},
	{1,2,3,5,8,9,11,12,13,14},
	{1,2,3,4,5,9,11,12,13,14},
	{1,2,4,7,9,10,11,12,13},
	{7,10,13},
	{1,2,3,5,7,8,9,10,11,12,13,14},
	{1,2,3,4,5,8,9,11,12,13,14},
	{1,2,4,7,9,10,11,12,13},
	{1,2,3,4,5,7,9,10,11,12,13,14},
	{3,5,6,7,8,10,12,13,14},
	{2,11,12},
	{1,2,3,5,8,9,11,12,13,14},
	{1,2,3,5,6,7,8,9,10,11,12,13,14},
	{1,2,3,5,7,9,10,11,12,13,14},
	{3,5,7,8,10,12,13,14},
	{1,2,4,9,11,12},
	{2,3,5,7,8,10,11,12,13,14},
	{1,2,3,4,5,8,9,11,12,13,14},
	{1,2,3,4,5,8,9,11,12,13,14},
	{1,2,3,5,8,9,11,12,13,14},
	{3,5,12,13,14},
	{1,2,9,11,12},
	{2,7,10,11,12,13},
	{1,2,9,11,12},
	{1,2,4,7,9,10,11,12,13},
	{1,2,3,4,5,9,11,12,13,14},
	{1,2,3,4,5,8,9,11,12,13,14},
	{1,2,3,4,5,6,8,9,11,12,13,14},
	{1,2,3,4,5,6,7,8,9,10,11,12,13,14},
	{1,2,3,5,6,7,8,9,10,11,12,13,14},
	{3,5,8,12,13,14},
	{1,2,3,4,5,7,9,10,11,12,13,14},
	{1,2,3,5,7,8,9,10,11,12,13,14},
	{3,5,12,13,14},
	{3,5,6,8,12,13,14},
	{1,2,9,11,12},
	{2,3,5,7,8,10,11,12,13,14},
	{3,5,7,8,10,12,13,14},
	{1,2,3,5,6,7,8,9,10,11,12,13,14},
	{1,2,3,4,5,7,8,9,10,11,12,13,14},
	{2,3,5,7,8,10,11,12,13,14},
	{7,10,13},
	{3,5,12,13,14},
	{3,5,8,12,13,14},
	{1,2,3,4,5,7,8,9,10,11,12,13,14},
	{1,2,3,4,5,8,9,11,12,13,14},
	{1,2,4,9,11,12},
	{1,2,3,4,5,6,8,9,11,12,13,14},
	{1,2,9,11,12},
	{1,2,9,11,12},
	{1,2,3,4,5,8,9,11,12,13,14},
	{3,5,8,12,13,14},
	{1,2,3,4,5,9,11,12,13,14},
	{1,2,3,4,5,6,7,8,9,10,11,12,13,14},
	{1,2,3,5,8,9,11,12,13,14},
	{3,5,7,8,10,12,13,14},
	{7,10,13},
	{1,2,9,11,12},
	{1,2,3,5,8,9,11,12,13,14},
	{7,10,13},
	{3,5,7,8,10,12,13,14},
	{3,5,6,8,12,13,14},
	{3,5,7,10,12,13,14},
	{1,2,3,4,5,9,11,12,13,14},
	{3,5,8,12,13,14},
	{1,2,3,4,5,8,9,11,12,13,14},
	{1,2,9,11,12},
	{1,2,4,7,9,10,11,12,13},
	{1,2,3,4,5,8,9,11,12,13,14},
	{1,2,4,7,9,10,11,12,13},
	{3,5,12,13,14},
	{1,2,3,5,8,9,11,12,13,14},
	{1,2,4,7,9,10,11,12,13},
	{1,2,3,4,5,7,8,9,10,11,12,13,14},
	{}];

POTENTIAL_ACT = [{2,3,6,7,8,9,11,12,13,14,16,17,18,19,20,21,23,24,25,26,29,30,31,33,35,36,37,39,41,42,43,44,45,46,47,49,50,53,56,57,62,63,64,65,66,67,68,70,71,72,75,76,81,83,84,85,86,87,89,90,91},
	{2,3,6,7,8,9,11,12,13,14,16,17,18,19,20,21,23,24,25,26,28,29,30,31,33,34,35,36,37,39,40,41,42,43,44,45,46,47,49,50,53,54,56,57,58,62,63,64,65,66,67,68,70,71,72,75,76,81,83,84,85,86,87,89,90,91},
	{2,3,4,6,7,8,10,11,12,13,15,16,17,19,20,23,24,26,27,29,30,31,32,34,35,36,37,38,43,44,45,46,47,48,49,50,51,52,54,55,56,57,58,60,61,62,63,65,68,69,70,71,72,73,76,78,79,80,81,82,83,86,88,89,91},
	{2,3,6,8,9,11,13,14,17,20,21,24,25,26,33,35,36,42,43,44,45,46,49,57,62,63,64,65,68,70,71,81,83,85,86,87,90,91},
	{2,3,4,6,7,8,10,11,12,13,15,16,17,19,20,23,24,26,27,29,30,31,32,34,35,36,37,38,43,44,45,46,47,48,49,50,51,52,54,55,56,57,58,60,61,62,63,65,68,69,70,71,72,73,76,78,79,80,81,82,83,86,88,89,91},
	{8,10,11,12,27,30,45,46,47,52,56,65,71,79},
	{4,5,7,12,13,14,21,22,23,25,26,27,30,31,32,34,40,42,46,47,49,50,54,55,56,57,58,59,62,71,73,74,77,78,80,85,87,90,91},
	{2,3,4,6,7,8,10,11,12,13,15,16,17,19,23,24,27,29,30,32,34,35,36,37,44,45,46,47,48,50,52,54,55,56,57,58,61,62,63,65,68,69,71,72,73,76,78,79,82,83,86,89,91},
	{2,3,6,7,8,9,11,12,13,14,16,17,18,19,20,21,23,24,25,26,29,30,31,33,35,36,37,39,41,42,43,44,45,46,47,49,50,53,56,57,62,63,64,65,66,67,68,70,71,72,75,76,81,83,84,85,86,87,89,90,91},
	{4,5,7,12,13,14,21,22,23,25,26,27,30,31,32,34,40,42,46,47,49,50,54,55,56,57,58,59,62,71,73,74,77,78,80,85,87,90,91},
	{2,3,6,7,8,9,11,12,13,14,16,17,18,19,20,21,23,24,25,26,28,29,30,31,33,34,35,36,37,39,40,41,42,43,44,45,46,47,49,50,53,54,56,57,58,62,63,64,65,66,67,68,70,71,72,75,76,81,83,84,85,86,87,89,90,91},
	{2,3,4,6,7,8,9,10,11,12,13,14,15,16,17,18,19,20,21,23,24,25,26,27,28,29,30,31,32,33,34,35,36,37,38,39,40,41,42,43,44,45,46,47,48,49,50,51,52,53,54,55,56,57,58,60,61,62,63,64,65,66,67,68,69,70,71,72,73,75,76,78,79,80,81,82,83,84,85,86,87,88,89,90,91},
	{2,3,4,5,6,7,8,10,11,12,13,14,15,16,17,19,20,21,22,23,24,25,26,27,29,30,31,32,34,35,36,37,38,40,42,43,44,45,46,47,48,49,50,51,52,54,55,56,57,58,59,60,61,62,63,65,68,69,70,71,72,73,74,76,77,78,79,80,81,82,83,85,86,87,88,89,90,91},
	{2,3,4,6,7,8,10,11,12,13,15,16,17,19,20,23,24,26,27,29,30,31,32,34,35,36,37,38,43,44,45,46,47,48,49,50,51,52,54,55,56,57,58,60,61,62,63,65,68,69,70,71,72,73,76,78,79,80,81,82,83,86,88,89,91}];
